15
920 614 952  661
944 968 984  143
604 793 518  478
433 414 877  169
587 511 835  763
669 549 658  183
959 439 578  904
951 559 785  439
523 632 843  809
853 569 630  676
467 629 424  908
700 624 964  927
971 689 747  447
910 930 813  524
891 898 608  914
10
781 601 593  88 159
80 134 375  298 164
484 407 741  121 161
360 494 207  230 180
678 570 235  38 284
791 93 620  228 290
602 11 60  96 125
707 127 210  141 64
407 202 606  14 104
524 6 215  8 283
